88 111 81 63 149 12 76 154 8 9 130 101 147 135 113 94 64 31 174 48 70 44 72 33 3 59 99 40 25 152 167 158 109 198 128 127 61 47 181 176 90 42 118 92 143 115 123 116 133 125 35 45 68 164 75 114 84 85 53 117 1 15 122 62 142 98 183 66 13 7 34 162 71 95 163 191 144 141 52 86 182 188 17 56 46 5 178 173 100 54 156 137 107 180 136 126 10 97 80 175 79 27 38 146 159 18 82 4 102 57 172 171 134 121 11 55 22 189 145 74 138 51 36 50 119 185 37 65 14 179 87 194 170 26 23 112 58 186 160 124 32 110 89 77 21 16 93 199 0 106 153 132 30 150 166 105 187 195 20 39 193 69 73 148 161 140 91 19 129 78 120 2 177 168 155 96 139 196 83 24 29 103 151 131 169 67 165 43 157 41 104 49 108 184 190 28 192 60 6 197